# Objective value = 15
y 15
x1 1
r1 0
y1 8
p12 0
q12 0
p13 1
q13 1
p14 1
q14 0
p15 0
q15 0
p16 1
q16 1
p17 0
q17 0
p18 0
q18 0
p19 0
q19 0
p110 0
q110 0
p111 0
q111 0
p112 0
q112 0
p113 0
q113 0
p114 0
q114 0
p115 0
q115 0
p116 0
q116 0
p117 0
q117 0
p118 1
q118 0
p119 0
q119 0
x2 6
r2 0
y2 2
p23 1
q23 1
p24 1
q24 0
p25 1
q25 0
p26 1
q26 0
p27 1
q27 0
p28 0
q28 0
p29 1
q29 0
p210 1
q210 0
p211 1
q211 1
p212 1
q212 0
p213 0
q213 1
p214 1
q214 0
p215 0
q215 0
p216 0
q216 0
p217 0
q217 0
p218 1
q218 0
p219 1
q219 1
x3 1
r3 0
y3 0
p34 0
q34 1
p35 0
q35 1
p36 0
q36 1
p37 0
q37 1
p38 0
q38 1
p39 0
q39 0
p310 0
q310 0
p311 0
q311 0
p312 0
q312 0
p313 0
q313 1
p314 0
q314 0
p315 0
q315 0
p316 0
q316 1
p317 0
q317 0
p318 1
q318 0
p319 0
q319 0
x4 0
r4 0
y4 4
p45 0
q45 0
p46 0
q46 0
p47 0
q47 0
p48 0
q48 0
p49 0
q49 0
p410 0
q410 0
p411 1
q411 1
p412 0
q412 0
p413 0
q413 0
p414 0
q414 0
p415 0
q415 0
p416 0
q416 0
p417 0
q417 0
p418 1
q418 1
p419 0
q419 0
x5 4
r5 0
y5 5
p56 1
q56 0
p57 1
q57 0
p58 0
q58 0
p59 1
q59 1
p510 1
q510 1
p511 1
q511 1
p512 0
q512 0
p513 0
q513 0
p514 1
q514 0
p515 0
q515 0
p516 0
q516 0
p517 0
q517 0
p518 1
q518 1
p519 1
q519 1
x6 1
r6 0
y6 1
p67 0
q67 0
p68 0
q68 0
p69 0
q69 0
p610 0
q610 0
p611 0
q611 0
p612 0
q612 0
p613 0
q613 0
p614 0
q614 0
p615 0
q615 0
p616 0
q616 0
p617 0
q617 0
p618 1
q618 0
p619 0
q619 0
x7 3
r7 0
y7 4
p78 0
q78 0
p79 0
q79 0
p710 1
q710 1
p711 0
q711 0
p712 0
q712 0
p713 0
q713 0
p714 1
q714 0
p715 0
q715 0
p716 0
q716 0
p717 0
q717 0
p718 1
q718 1
p719 1
q719 1
x8 7
r8 0
y8 2
p89 1
q89 0
p810 1
q810 0
p811 0
q811 0
p812 1
q812 0
p813 1
q813 0
p814 1
q814 0
p815 0
q815 1
p816 0
q816 0
p817 0
q817 0
p818 1
q818 0
p819 1
q819 1
x9 4
r9 0
y9 0
p910 1
q910 0
p911 0
q911 0
p912 0
q912 0
p913 0
q913 0
p914 1
q914 0
p915 0
q915 1
p916 0
q916 0
p917 0
q917 0
p918 1
q918 0
p919 0
q919 0
x10 3
r10 0
y10 0
p1011 0
q1011 0
p1012 0
q1012 0
p1013 0
q1013 0
p1014 1
q1014 0
p1015 0
q1015 0
p1016 0
q1016 0
p1017 0
q1017 0
p1018 1
q1018 0
p1019 0
q1019 0
x11 9
r11 0
y11 0
p1112 1
q1112 0
p1113 1
q1113 0
p1114 1
q1114 0
p1115 1
q1115 0
p1116 0
q1116 1
p1117 1
q1117 0
p1118 1
q1118 0
p1119 1
q1119 0
x12 5
r12 0
y12 0
p1213 0
q1213 0
p1214 1
q1214 0
p1215 0
q1215 0
p1216 0
q1216 0
p1217 0
q1217 0
p1218 1
q1218 0
p1219 0
q1219 0
x13 6
r13 1
y13 14
p1314 1
q1314 0
p1315 0
q1315 0
p1316 0
q1316 0
p1317 0
q1317 0
p1318 1
q1318 0
p1319 1
q1319 1
x14 2
r14 0
y14 0
p1415 0
q1415 0
p1416 0
q1416 0
p1417 0
q1417 0
p1418 1
q1418 0
p1419 0
q1419 0
x15 7
r15 0
y15 9
p1516 0
q1516 0
p1517 1
q1517 1
p1518 1
q1518 0
p1519 1
q1519 1
x16 9
r16 0
y16 2
p1617 1
q1617 0
p1618 1
q1618 1
p1619 1
q1619 0
x17 8
r17 0
y17 0
p1718 1
q1718 0
p1719 1
q1719 0
x18 0
r18 1
y18 0
p1819 0
q1819 0
x19 6
r19 0
y19 0
